WARNING: for repeatability, setting FPU to use double precision
============================[ Problem Statistics ]=============================
|                                                                             |
|  Number of variables:           256                                         |
|  Number of clauses:            4206                                         |
|  Parse time:                   0.00 s                                       |
|                                                                             |
============================[ Search Statistics ]==============================
| Conflicts |          ORIGINAL         |          LEARNT          | Progress |
|           |    Vars  Clauses Literals |    Limit  Clauses Lit/Cl |          |
===============================================================================
===============================================================================
restarts              : 1
conflicts             : 90             (40214 /sec)
decisions             : 116            (0.00 % random) (51832 /sec)
propagations          : 1574           (703307 /sec)
conflict literals     : 864            (6.59 % deleted)
Memory used           : 11.00 MB
CPU time              : 0.002238 s

SATISFIABLE
